* ENCODING=ISO-8859-1
NAME          CPLEX
ROWS
 N  obj1    
 G  c1      
 G  c2      
 G  c3      
 G  c4      
 G  c5      
 G  c6      
 G  c7      
 G  c8      
 G  c9      
 G  c10     
 G  c11     
 G  c12     
 G  c13     
 G  c14     
 G  c15     
 G  c16     
 G  c17     
 G  c18     
 G  c19     
 G  c20     
 G  c21     
 G  c22     
 G  c23     
 G  c24     
 G  c25     
 G  c26     
 G  c27     
 G  c28     
 G  c29     
 G  c30     
 G  c31     
 G  c32     
 G  c33     
 G  c34     
 G  c35     
COLUMNS
    MARK0000  'MARKER'                 'INTORG'
    x1        obj1                            1
    x1        c1                            935
    x1        c5                            428
    x1        c9                            224
    x1        c11                           711
    x1        c28                           144
    x1        c29                           435
    x1        c30                           904
    x1        c32                           524
    x2        obj1                            1
    x2        c5                            617
    x2        c18                           223
    x2        c23                           428
    x3        obj1                            1
    x3        c6                            492
    x3        c14                           359
    x3        c17                           122
    x4        obj1                            1
    x4        c7                            904
    x4        c9                            366
    x4        c16                           257
    x4        c19                           102
    x4        c20                           212
    x5        obj1                            1
    x5        c5                            701
    x5        c21                           893
    x5        c22                           672
    x5        c24                           484
    x6        obj1                            1
    x6        c5                            189
    x6        c8                            800
    x6        c22                           957
    x7        obj1                            1
    x7        c14                           914
    x7        c16                           550
    x7        c17                           618
    x7        c28                           932
    x8        obj1                            1
    x8        c33                           562
    x9        obj1                            1
    x9        c8                            757
    x9        c21                           474
    x10       obj1                            1
    x10       c8                            277
    x10       c13                           746
    x10       c23                           906
    x11       obj1                            1
    x11       c14                           316
    x12       obj1                            1
    x12       c11                           696
    x12       c23                           400
    x12       c32                           546
    x13       obj1                            1
    x13       c1                            676
    x13       c14                           944
    x13       c18                           111
    x13       c28                           525
    x13       c29                           388
    x13       c31                           514
    x14       obj1                            1
    x14       c2                            985
    x14       c4                            392
    x14       c8                            866
    x14       c17                           827
    x14       c21                           422
    x14       c23                           720
    x14       c25                           954
    x14       c31                           337
    x15       obj1                            1
    x15       c3                            416
    x15       c5                            315
    x15       c21                           769
    x16       obj1                            1
    x16       c2                            888
    x16       c14                           743
    x16       c27                           593
    x17       obj1                            1
    x17       c6                            553
    x17       c15                           550
    x17       c27                           553
    x17       c34                           351
    x17       c35                           724
    x18       obj1                            1
    x18       c4                            152
    x18       c22                           715
    x18       c26                           141
    x19       obj1                            1
    x20       obj1                            1
    x20       c2                            418
    x20       c16                           225
    x20       c28                           425
    x20       c33                           507
    x20       c35                           580
    x21       obj1                            1
    x21       c4                            726
    x21       c5                            137
    x21       c8                            513
    x21       c17                           686
    x21       c19                           337
    x21       c25                           631
    x21       c35                           961
    x22       obj1                            1
    x22       c9                            725
    x22       c27                           695
    x22       c29                           142
    x23       obj1                            1
    x23       c13                           214
    x23       c30                           393
    x23       c35                           956
    x24       obj1                            1
    x24       c7                            610
    x24       c9                            610
    x24       c12                           498
    x24       c17                           566
    x24       c21                           396
    x24       c31                           810
    x25       obj1                            1
    x25       c1                            293
    x25       c3                            740
    x25       c6                            327
    x25       c9                            631
    x25       c22                           310
    x25       c25                           156
    x25       c28                           947
    x26       obj1                            1
    x26       c12                           117
    x26       c28                           103
    x27       obj1                            1
    x27       c8                            624
    x27       c16                           950
    x27       c24                           758
    x27       c26                           153
    x27       c33                           800
    x27       c35                           883
    x28       obj1                            1
    x28       c1                            434
    x28       c2                            281
    x28       c19                           490
    x28       c20                           990
    x29       obj1                            1
    x30       obj1                            1
    x30       c23                           397
    x30       c26                           368
    x30       c32                           674
    x31       obj1                            1
    x31       c9                            547
    x31       c15                           417
    x31       c22                           278
    x31       c23                           468
    x31       c35                           244
    x32       obj1                            1
    x32       c4                            916
    x32       c22                           496
    x32       c26                           272
    x32       c32                           446
    x33       obj1                            1
    x33       c3                            177
    x33       c4                            336
    x33       c27                           189
    x33       c28                           350
    x33       c30                           345
    x34       obj1                            1
    x34       c6                            409
    x34       c12                           729
    x34       c29                           340
    x35       obj1                            1
    x35       c16                           273
    x35       c21                           773
    x36       obj1                            1
    x36       c18                           322
    x37       obj1                            1
    x37       c8                            665
    x37       c20                           546
    x37       c23                           210
    x38       obj1                            1
    x38       c7                            342
    x38       c12                           609
    x39       obj1                            1
    x39       c3                            344
    x39       c21                           786
    x39       c29                           224
    x40       obj1                            1
    x40       c33                           490
    x41       obj1                            1
    x41       c22                           585
    x41       c34                           565
    x42       obj1                            1
    x42       c10                           845
    x42       c34                           840
    x43       obj1                            1
    x43       c2                            405
    x43       c12                           354
    x43       c16                           985
    x43       c29                           531
    x44       obj1                            1
    x44       c1                            141
    x44       c15                           153
    x44       c16                           601
    x44       c19                           626
    x44       c28                           132
    x45       obj1                            1
    x45       c30                           369
    x46       obj1                            1
    x46       c4                            997
    x46       c7                            451
    x46       c8                            121
    x46       c17                           422
    x46       c25                           241
    x47       obj1                            1
    x47       c7                            735
    x47       c11                           986
    x47       c14                           450
    x47       c20                           657
    x47       c25                           581
    x47       c27                           977
    x48       obj1                            1
    x48       c2                            842
    x49       obj1                            1
    x49       c19                           663
    x49       c30                           230
    x50       obj1                            1
    x50       c4                            868
    x50       c12                           137
    x50       c15                           900
    x50       c17                           215
    x50       c21                           269
    x50       c24                           622
    x50       c27                           807
    x50       c33                           371
    x50       c35                           518
    x51       obj1                            1
    x51       c6                            299
    x51       c8                            875
    x52       obj1                            1
    x52       c22                           692
    x52       c23                           249
    x52       c29                           315
    x52       c33                           108
    x53       obj1                            1
    x53       c15                           676
    x53       c24                           378
    x53       c34                           721
    x54       obj1                            1
    x54       c11                           926
    x54       c24                           625
    x54       c27                           360
    x55       obj1                            1
    x55       c10                           475
    x55       c18                           564
    x55       c23                           731
    x56       obj1                            1
    x56       c7                            499
    x56       c12                           713
    x57       obj1                            1
    x57       c22                           457
    x57       c29                           533
    x57       c33                           990
    x57       c34                           979
    x58       obj1                            1
    x58       c16                           505
    x58       c32                           354
    x58       c35                           899
    x59       obj1                            1
    x59       c33                           842
    x59       c35                           222
    x60       obj1                            1
    x60       c10                           116
    x60       c11                           839
    x60       c14                           309
    x60       c19                           992
    x60       c28                           248
    x60       c33                           340
    x60       c35                           334
    x61       obj1                            1
    x61       c19                           966
    x61       c30                           602
    x61       c32                           514
    x62       obj1                            1
    x62       c9                            839
    x62       c11                           178
    x63       obj1                            1
    x63       c4                            715
    x63       c7                            107
    x63       c13                           380
    x63       c19                           762
    x63       c30                           129
    x63       c31                           971
    x64       obj1                            1
    x64       c5                            519
    x64       c6                            738
    x64       c13                           171
    x64       c14                           693
    x64       c29                           628
    x65       obj1                            1
    x65       c5                            210
    x65       c7                            882
    x65       c13                           634
    x65       c17                           189
    x65       c19                           862
    x66       obj1                            1
    x66       c1                            178
    x66       c2                            352
    x66       c3                            552
    x66       c10                           604
    x66       c21                           667
    x67       obj1                            1
    x67       c7                            907
    x67       c12                           593
    x67       c17                           508
    x67       c21                           583
    x67       c30                           227
    x67       c31                           901
    x68       obj1                            1
    x68       c30                           656
    x69       obj1                            1
    x69       c2                            532
    x69       c12                           788
    x69       c19                           154
    x69       c23                           496
    x70       obj1                            1
    x70       c7                            688
    x70       c8                            163
    x70       c16                           669
    x70       c17                           710
    MARK0001  'MARKER'                 'INTEND'
RHS
    rhs       c1                           1329
    rhs       c2                           2352
    rhs       c3                           1115
    rhs       c4                           2551
    rhs       c5                           1558
    rhs       c6                           1409
    rhs       c7                           3063
    rhs       c8                           2831
    rhs       c9                           1971
    rhs       c10                          1020
    rhs       c11                          2168
    rhs       c12                          2269
    rhs       c13                          1073
    rhs       c14                          2364
    rhs       c15                          1348
    rhs       c16                          2508
    rhs       c17                          2432
    rhs       c18                           610
    rhs       c19                          2977
    rhs       c20                          1203
    rhs       c21                          3016
    rhs       c22                          2581
    rhs       c23                          2503
    rhs       c24                          1434
    rhs       c25                          1282
    rhs       c26                           467
    rhs       c27                          2087
    rhs       c28                          1903
    rhs       c29                          1768
    rhs       c30                          1928
    rhs       c31                          1767
    rhs       c32                          1529
    rhs       c33                          2505
    rhs       c34                          1728
    rhs       c35                          3161
BOUNDS
 LI bnd       x1        0
 LI bnd       x2        0
 LI bnd       x3        0
 LI bnd       x4        0
 LI bnd       x5        0
 LI bnd       x6        0
 LI bnd       x7        0
 LI bnd       x8        0
 LI bnd       x9        0
 LI bnd       x10       0
 LI bnd       x11       0
 LI bnd       x12       0
 LI bnd       x13       0
 LI bnd       x14       0
 LI bnd       x15       0
 LI bnd       x16       0
 LI bnd       x17       0
 LI bnd       x18       0
 LI bnd       x19       0
 LI bnd       x20       0
 LI bnd       x21       0
 LI bnd       x22       0
 LI bnd       x23       0
 LI bnd       x24       0
 LI bnd       x25       0
 LI bnd       x26       0
 LI bnd       x27       0
 LI bnd       x28       0
 LI bnd       x29       0
 LI bnd       x30       0
 LI bnd       x31       0
 LI bnd       x32       0
 LI bnd       x33       0
 LI bnd       x34       0
 LI bnd       x35       0
 LI bnd       x36       0
 LI bnd       x37       0
 LI bnd       x38       0
 LI bnd       x39       0
 LI bnd       x40       0
 LI bnd       x41       0
 LI bnd       x42       0
 LI bnd       x43       0
 LI bnd       x44       0
 LI bnd       x45       0
 LI bnd       x46       0
 LI bnd       x47       0
 LI bnd       x48       0
 LI bnd       x49       0
 LI bnd       x50       0
 LI bnd       x51       0
 LI bnd       x52       0
 LI bnd       x53       0
 LI bnd       x54       0
 LI bnd       x55       0
 LI bnd       x56       0
 LI bnd       x57       0
 LI bnd       x58       0
 LI bnd       x59       0
 LI bnd       x60       0
 LI bnd       x61       0
 LI bnd       x62       0
 LI bnd       x63       0
 LI bnd       x64       0
 LI bnd       x65       0
 LI bnd       x66       0
 LI bnd       x67       0
 LI bnd       x68       0
 LI bnd       x69       0
 LI bnd       x70       0
ENDATA
